c WARNING: for repeatability, setting FPU to use double precision
d VARIABLES            27306        
d CONSTRAINTS          93032        
c ============================[ Problem Statistics ]=============================
c |                                                                             |
c |  Number of variables:         27306                                         |
c |  Number of clauses:           93032                                         |
c |  Parse time:                   0.02 s                                       |
c |                                                                             |
c ============================[ Search Statistics ]==============================
c | Conflicts |          ORIGINAL         |          LEARNT          | Progress |
c |           |    Vars  Clauses Literals |    Limit  Clauses Lit/Cl |          |
c ===============================================================================
c |       100 |   17940    68998   173513 |    25299      100     24 | 34.300 % |
c |       250 |   17940    68998   173513 |    27829      250     29 | 34.300 % |
c |       475 |   17940    68998   173513 |    30612      475     35 | 34.300 % |
c |       812 |   17940    68998   173513 |    33673      812     39 | 34.300 % |
c |      1318 |   17940    68998   173513 |    37040     1318     43 | 34.300 % |
c |      2077 |   17940    68998   173513 |    40744     2077     47 | 34.300 % |
c |      3216 |   17940    68998   173513 |    44819     3216     46 | 34.300 % |
c |      4924 |   17940    68998   173513 |    49301     4924     48 | 34.300 % |
c |      7486 |   17940    68998   173513 |    54231     7486     58 | 34.300 % |
c |     11330 |   17940    68998   173513 |    59654    11330     69 | 34.300 % |
c |     17096 |   17940    68998   173513 |    65619    17096     75 | 34.300 % |
c |     25745 |   17940    68998   173513 |    72181    25745     78 | 34.300 % |
c |     38719 |   17940    68998   173513 |    79399    38719     73 | 34.300 % |
c ===============================================================================
c restarts              : 141
c conflicts             : 47092          (5682 /sec)
c decisions             : 87927          (0.00 % random) (10608 /sec)
c propagations          : 25488837       (3075198 /sec)
c conflict literals     : 3384075        (42.91 % deleted)
d RESTARTS             141
d FAILURES             47092        
d NODES                87927        
d BACKTRACKS           87927        
d PROPAGATIONS         25488837     
d NOGOODSIZE           71.86 
d MEMORY               31.00 
d TIME                 8.28852 

s UNSATISFIABLE
